c WARNING: for repeatability, setting FPU to use double precision
d VARIABLES            72338        
d CONSTRAINTS          255856       
c ============================[ Problem Statistics ]=============================
c |                                                                             |
c |  Number of variables:         72338                                         |
c |  Number of clauses:          255856                                         |
c |  Parse time:                   0.04 s                                       |
c |                                                                             |
c ============================[ Search Statistics ]==============================
c | Conflicts |          ORIGINAL         |          LEARNT          | Progress |
c |           |    Vars  Clauses Literals |    Limit  Clauses Lit/Cl |          |
c ===============================================================================
c |       100 |   52648   205030   515889 |    75177      100     18 | 27.219 % |
c |       250 |   52648   205030   515889 |    82695      250     69 | 27.219 % |
c |       475 |   52648   205030   515889 |    90964      475     65 | 27.219 % |
c |       812 |   52648   205030   515889 |   100061      812     44 | 27.219 % |
c |      1318 |   52648   205030   515889 |   110067     1318     44 | 27.219 % |
c |      2077 |   52648   205030   515889 |   121074     2077     56 | 27.219 % |
c |      3216 |   52648   205030   515889 |   133181     3216     84 | 27.219 % |
c |      4924 |   52648   205030   515889 |   146500     4924     80 | 27.219 % |
c |      7486 |   52648   205030   515889 |   161150     7486    104 | 27.219 % |
c |     11330 |   52648   205030   515889 |   177265    11330    105 | 27.219 % |
c |     17096 |   52648   205030   515889 |   194991    17096    106 | 27.219 % |
c |     25745 |   52648   205030   515889 |   214490    25745    107 | 27.219 % |
c |     38719 |   52648   205030   515889 |   235939    38719    116 | 27.219 % |
c |     58180 |   52648   205030   515889 |   259533    58180    122 | 27.219 % |
c |     87372 |   52642   204965   515736 |   285487    87351    129 | 27.228 % |
c |    131161 |   52633   204877   515528 |   314035   131094    136 | 27.240 % |
c ===============================================================================
c restarts              : 467
c conflicts             : 170973         (3219 /sec)
c decisions             : 591981         (0.00 % random) (11147 /sec)
c propagations          : 201961180      (3802888 /sec)
c conflict literals     : 22944630       (29.42 % deleted)
d RESTARTS             467
d FAILURES             170973       
d NODES                591981       
d BACKTRACKS           591981       
d PROPAGATIONS         201961180    
d NOGOODSIZE           134.20 
d MEMORY               156.00 
d TIME                 53.1073 

s UNSATISFIABLE
